
(set-logic ALL) 

(declare-datatype MyList ((Nil) (Cons (head Real) (tail MyList)) )) 
(declare-fun l0 () MyList) 
(declare-fun l1 () MyList) 
(declare-fun l2 () MyList) 
(declare-fun l3 () MyList) 
(declare-fun i0 () Real) 
(declare-fun i1 () Real) 
(assert (is-Nil Nil) )
(assert (or (is-Cons l3) (= l3 l3) (= l0 Nil) (= l2 Nil)) )
(assert (or (= l2 l2) (is-Cons l1) (is-Nil l0) (= l2 Nil)) )
(assert (= l2 l1) )
(assert (= l1 Nil) )
(assert (or (is-Nil Nil) (= l3 Nil)) )
(assert (and (= l1 Nil) (= l3 l2) (= l0 l0)) )
(assert (not (= l3 l3)) )
(check-sat)
